&projwfc
   outdir = 'dimer.in_vnscf_coords_7'
   prefix = 'qe.nscf'
   filpdos='t'
   lwrite_overlaps = .true.
   lbinary_data  = .false.
   pawproj = .false.
   lsym = .false.
/

