kfg POSCAR
1.000000000000000000000
4.178903381021255   0.0   0.0
-2.0894516905106273   3.619036487925088   0.0
0.0   0.0   28.322001
Cl N Sr 
1 2 2 
Direct
0.3333333333333333   0.6666666666666667   0.501906436195787
0.0   0.0   0.4064201731539586
0.6666666666666667   0.3333333333333333   0.5973839381577134
0.6666666666666667   0.3333333333333333   0.4278226180991058
0.0   0.0   0.5759908343934345
