 &control
    calculation     = 'scf'
    prefix          = 'sic'
    restart_mode    = 'from_scratch'
    wf_collect      = .false.
    pseudo_dir      = '/users/kfg/psuedo/gbrv_1.2/'
    outdir          = './'
    tprnfor         = .true.
    tstress         = .true.
 /
 &system
    ibrav           = 0
    nat             = 2
    ntyp            = 2
    ecutwfc         = 60
    occupations     = 'smearing'
    smearing        = 'mp'
    degauss         = 0.02
    nbnd            = 4
 /
 &electrons
    diagonalization = 'david'
    mixing_beta     = 0.7
    conv_thr        = 1.0d-10
 /
ATOMIC_SPECIES
  Si  28.0855     si.lda.UPF
  C   12.01078    c.lda.UPF

ATOMIC_POSITIONS 
  Si  0.00  0.00  0.00
  C   0.25  0.25  0.25
CELL_PARAMTERS
10.0 0 0
0 10.0 0
0 0 10.0
K_POINTS automatic
8 8 8 0 0 0
