GaCuSe2_mp-1224788_symmetrized.cif
1.0
     3.7744000000       0.0000000000       0.0000000000
     0.0000000000       3.7744000000       0.0000000000
     0.0000000000       0.0000000000       5.2659000000
A B C
1 1 2
Direct
     0.500000000     0.500000000     0.510000000  
     0.000000000     0.000000000     0.000000000  
     0.000000000     0.000000000     0.500000000  
     0.500000000     0.500000000     0.000000000  