SiPAu_mp-1207095_symmetrized.cif -- Reduced via b,-a,-1/3a+1/3b+1/3c
1.0
     3.5190000000       0.0000000000       0.0000000000
     1.7595000000       3.0475433959174394       0.0000000000
     1.7595000000       1.0158477986391465       5.7951593738
A B C
1 1 1
Direct
     0.727930000     0.727930000     0.816210000  !Si
     0.001300000     0.001300000     0.996100000  !P
     0.863470000     0.863470000     0.409590000  !Au
