bulk@mp_2741                            
   1.00000000000000     
     3.5693849625946705    3.5693849625946705    0.0000000000000000
     3.5693849625946705   -0.0000000000000000   3.5693849625946705
     0.0000000000000000    3.5693849625946705   3.5693849625946705
   A    B   C
     1   1   1
Direct
 -0.0000000000000000  0.0000000000000000  0.0000000000000000
  0.7500000000000000  0.7500000000000000  0.7500000000000000
  0.2500000000000000  0.2500000000000000  0.2500000000000000
 
  0.00000000E+00  0.00000000E+00  0.00000000E+00
  0.00000000E+00  0.00000000E+00  0.00000000E+00
  0.00000000E+00  0.00000000E+00  0.00000000E+00
