bulk@mp_1063005
   1.00000000000000
   4.0 0.0 0.0
   -2.0 3.4641016151377544 0.0
   0.0000000000000000    0.0000000000000000    7.0
   A B C
     1 1 1
Direct
 -0.0000000000000000 -0.0000000000000000  0.0000000000000000
  0.3333333333333333  0.6666666666666666  0.5000000000000000
  0.6666666666666666  0.3333333333333333  0.5000000000000000

  0.00000000E+00  0.00000000E+00  0.00000000E+00
  0.00000000E+00  0.00000000E+00  0.00000000E+00
  0.00000000E+00  0.00000000E+00  0.00000000E+00
