&control
    calculation = 'vc-relax'
    restart_mode='from_scratch',
    prefix = 'qe1'
    tstress = .true.
    tprnfor = .true.
    pseudo_dir = '/users/kfg/psuedo/gbrv_1.5/',
!    pseudo_dir = '/home/kevin/psp/'
    outdir = '/tmp'
    disk_io = 'low'
    wf_collect = .true.
    verbosity = 'high'    
 /
&system
    ibrav=  0, 
    nat=  3 
    ntyp= 2
    ecutwfc= 45,
    ecutrho= 250,
    q2sigma= 1
    ecfixed= 44.5,
    qcutz= 800
    occupations= "smearing",
    degauss= 0.005
    lda_plus_u= .false.
    force_symmorphic = true
/
&electrons
    diagonalization='david'
    mixing_mode = 'local-TF'
    mixing_beta = 0.3
    conv_thr = 1d-9
 /
&ions
  ion_dynamics='bfgs',
/
&cell
 cell_dynamics = 'bfgs'
 cell_dofree = '2Dxy'
/
ATOMIC_SPECIES
A  26.98  al.pbesol.UPF  
B  26.98  al.pbesol.UPF  
ATOMIC_POSITIONS crystal
B 0.000000000 0.000000000 0.000000000   
A 0.3333333333333 0.6666666666667 0.000000000   
A 0.6666666666667 0.3333333333333 0.000000000   
CELL_PARAMETERS
   8.454841147   0.000000000   0.000000000
  -4.2274205735  7.322107218263961   0.000000000
   0.000000000   0.000000000   10.0
K_POINTS automatic
  10 10 6 0 0 0
