System
1.0
10 0 0
0 10 0
0 0 10
A B
1 2
direct
0.0 0.0 0.0
0.05 0.0 0.2
0.05 0.0 -0.2
