System
1.0
10 0 0
0 10 0
0 0 10
A B
1 2
direct
  -1.6963255666113168e-02  0.0000000000000000e+00  0.0000000000000000e+00
   6.3481627833057053e-02  0.0000000000000000e+00  1.3736188614814712e-01
   6.3481627833057053e-02  0.0000000000000000e+00 -1.3736188614814712e-01

