t.cif -- Reduced via 1/2a+1/2c,1/2a+1/2b,1/2b+1/2c
1.0
     4.8580000000       0.0000000000       0.0000000000
     2.4290000000       4.207151411584802       0.0000000000
     2.4290000000       1.4023838038616008      3.9665403901468927
B A
2 2
Direct
     0.125000000     0.125000000     0.125000000  
     0.875000000     0.875000000     0.875000000  
     0.375000000     0.375000000     0.375000000  
     0.625000000     0.625000000     0.625000000  
