~bulk@mp_558836
1.0
5.381050 0.000000 -1.9024883333333333
-2.690525 4.660125999034253 -1.9024883333333333
0.000000 0.000000 5.707465
A B
1 6 
direct
0.000000 0.000000 0.000000 
0.000000 0.716663 0.716663 
0.000000 0.283337 0.283337 
0.283337 0.000000 0.283337 
0.716663 0.000000 0.716663 
0.716663 0.716663 0.000000 
0.283337 0.283337 0.000000 
