System
1.0
2.489031678131974 1.4370431093910008 4.422491272461685
-2.489031678131974 1.4370431093910008 4.422491272461685
0.0 -2.8740862187820015 4.422491272461685
A B
2 6 
direct
0.49999999999999983 0.49999999999999983 0.5
0.0 7.401486830834377e-17 5.551115123125783e-17
0.3943581457899445 0.1056418542100555 0.75
0.75 0.3943581457899445 0.1056418542100555
0.1056418542100555 0.75 0.3943581457899445
0.6056418542100553 0.8943581457899445 0.24999999999999997
0.24999999999999992 0.6056418542100553 0.8943581457899445
0.8943581457899444 0.24999999999999992 0.6056418542100555
