GeI2_mp-567677_symmetrized.cif
1.0
     4.1614000000       0.0000000000       0.0000000000
    -2.0807000000       3.6038781153       0.0000000000
     0.0000000000       0.0000000000       8.5642000000
A B
1 2
Direct
     0.000000000     0.000000000     0.000000000  
     0.333333333     0.666666667     0.224070000  
     0.333333333     0.666666667     0.775930000  