System
1.0
3 0 0
-1.5 2.598076211353316 0
0 0 15
A B
3 2
direct
0.3333333333333 0.6666666666667 0.35
0 0 0.5
0.3333333333333 0.6666666666667 0.65
0 0 0.7
0 0 0.3