System
1.0
-2.248889530884383 2.248889530884383 5.337809787052559
2.248889530884383 -2.248889530884383 5.337809787052559
2.248889530884383 2.248889530884383 -5.337809787052559
A B
4 1
direct
0.6183126692439729 0.6183126692439729 0.0
0.75 0.25 0.5
0.25 0.75 0.5
0.3816873307560271 0.3816873307560271 0.0
0.0 0.0 0.0
