t.cif -- Reduced via -a,-b,1/2a+1/2b+1/2c
1.0
     4.0960000000       0.0000000000       0.0000000000
     0.0000000000       4.0960000000       0.0000000000
    -2.048       -2.048        3.4790390193
A B
1 2
Direct
     0.000000000     0.000000000     0.000000000  
     0.597360000     0.597360000     0.194720000  
     0.402640000     0.402640000     0.805280000  
