fake
   1.00000000000000
     3.5   -0.0000000000000000    0.0000000000000000
     0.0000000000000000    7.01    0.0000000000000000
     0.0000000000000000   -0.0000000000000000    7.02
   A   B
     2     2
Direct
  0.0000000000000000  0.0200000000000000  0.0100000000000000
  0.0000000000000000  0.4800000000000000  0.020000000000000
  0.0000000000000000  0.9800000000000000  0.49000000000000000
  0.0000000000000000  0.5200000000000000  0.5000000000000000
