bulk@mp_28116
   1.00000000000000
     1.6528179870941921   -2.8627647293108618    0.0000000000000002
     1.6528179870941921    2.8627647293108618   -0.0000000000000002
     0.0000000000000004    0.0000000000000005    6.2333854710903269
   A B
     1     2
Direct
  0.0000000000000000  0.0000000000000000  0.0000000000000000
  0.6666666666666666  0.3333333333333333  0.2538233569624181
  0.3333333333333333  0.6666666666666666  0.7461766430375818
