t.cif
1.0
     4.0532000000       0.0000000000       0.0000000000
    -2.0266             3.5101741666190867 0.0000000000
     0.0000000000       0.0000000000       6.6988000000
A B
2 2
Direct
     0.333333333     0.666666666     0.562990000  
     0.666666666     0.333333333     0.062990000  
     0.666666666     0.333333333     0.437010000  
     0.333333333     0.666666666     0.937010000  
