bulk@mp_1170                            
   1.00000000000000     
     1.8550176665733435   -3.2129848474428937   -0.0000000000000001
     1.8550176665733435    3.2129848474428937    0.0000000000000004
     0.0000000000000003    0.0000000000000004    5.9033365145833994
   A   B 
     1     2
Direct
  0.0000000000000000  0.0000000000000000  0.0000000000000000
  0.33333333333333    0.66666666666666  0.2510152327528088
  0.66666666666666    0.3333333333333  0.7489847672471912
 
  0.00000000E+00  0.00000000E+00  0.00000000E+00
  0.00000000E+00  0.00000000E+00  0.00000000E+00
  0.00000000E+00  0.00000000E+00  0.00000000E+00
