System
1.0
5.322606957787862 0.0 0.0
-2.661303478893931 4.609512839804095 0.0
0.0 0.0 4.460501662133354
A B
1 5
direct
0.0 0.0 0.0
0.6666666666666667 0.33333333333333326 0.0
0.3333333333333333 0.6666666666666667 0.0
0.5 0.5 0.5
0.5 0.0 0.5
0.0 0.5 0.5
