System
1.0
3.8119178803689637 0.0 0.0
-1.9059589401844819 3.301217721539653 0.0
0.0 0.0 3.573396171900157
A B
2 2
direct
0.0 0.0 0.5 
0.0 0.0 0.0 
0.6666666666666667 0.33333333333333337 0.75 
0.3333333333333333 0.6666666666666667 0.25 
