System
1.1
3 0 0
-1.5 2.598076211353316 0
0 0 15
A B
2 2
direct
0.3333333333333 0.6666666666667 0.2
0 0 0.6
0.3333333333333 0.6666666666667 0.4
0 0 0.8