bulk@mp_755483                          
   1.00000000000000     
     3.0330621130184765   -0.0000000000000000   -0.0000000000000000
    -1.5165310565092383    0.8755700985715765    5.8199465268217052
     1.5165310565092383   -2.6267092987974365    0.0000000003802076
   A   B 
     2     3
Direct
  0.1930043032664462  0.5790129097993488  0.1930043032664563
  0.6933280266712452  0.0799840800137408  0.6933280266712579
  0.0280950870067209  0.0842852610201315  0.0280950870066825
  0.5820842040581496  0.7462536121744598  0.5820842040581492
  0.8064883789974358  0.4194641369923179  0.8064883789974513
 
  0.00000000E+00  0.00000000E+00  0.00000000E+00
  0.00000000E+00  0.00000000E+00  0.00000000E+00
  0.00000000E+00  0.00000000E+00  0.00000000E+00
  0.00000000E+00  0.00000000E+00  0.00000000E+00
  0.00000000E+00  0.00000000E+00  0.00000000E+00
