t.cif -- Reduced via -a,-b,1/2a+1/2b+1/2c
1.0
3.1750632654179998  3.1750632654179998  0.0
3.1750632654179998  0.0  3.1750632654179998
0.0  6.3501265308359995  6.3501265308359995
A B
3 1
Direct
0.0  0.0 0.0
0.25  0.25 0.125
0.0  0.0 0.5
0.25  0.25 0.625
