System
1.0
2.840673484150811 0.0 0.0
-1.4203367420754054 2.4600954011314538 0.0
0.0 0.0 7.2001605397536395
A B
3 1
direct
0.33333333333333326 0.6666666666666666 0.8011647714978386
0.33333333333333326 0.6666666666666667 0.1988352285021614
0.0 0.0 0.5
0.0 0.0 0.0
