System
1.0
-1.9039360368335605 1.9039360368335605 4.81634204870525
1.9039360368335605 -1.9039360368335605 4.81634204870525
1.9039360368335605 1.9039360368335605 -4.81634204870525
A B
2 4
direct
0.0 0.0 0.0
0.75 0.25 0.5
0.20783751015248608 0.20783751015248608 0.0
0.5421624898475139 0.04216248984751392 0.5
0.7921624898475139 0.7921624898475139 0.0
0.9578375101524861 0.4578375101524861 0.5
