t.cif
1.0
     3.0927000000       0.0000000000       0.0000000000
     0.0000000000       3.2690000000       0.0000000000
     0.0000000000       0.0000000000       5.9204000000
A B
2 5
Direct
     0.000000000     0.000000000     0.000000000  
     0.500000000     0.000000000     0.500000000  
     0.000000000     0.000000000     0.310620000  
     0.000000000     0.000000000     0.689380000  
     0.000000000     0.500000000     0.000000000  
     0.500000000     0.500000000     0.500000000  
     0.500000000     0.000000000     0.000000000  
