System
1.0
4.297459889122104 0.0 0.0
0.0 4.297459889122104 0.0
0.0 0.0 4.297459889122104
A B
4 2
direct
0.25 0.25 0.75
0.75 0.25 0.25
0.25 0.75 0.25
0.75 0.75 0.75
0.5 0.5 0.5
0.0 0.0 0.0
