t.cif -- Reduced via b,-a,-1/3a+1/3b+1/3c
1.0
     3.6310000000       0.0000000000       0.0000000000
     1.8155       3.1445382411412965       0.0000000000
     1.8155       1.0481794137137654       7.7580427332
A B
2 2
Direct
     0.052650000     0.052650000     0.842049000
     0.947350000     0.947350000     0.157950000
     0.765690000     0.765690000     0.702929000
     0.234310000     0.234310000     0.297070000
