t.cif -- Reduced via b,-a,-1/3a+1/3b+1/3c
1.0
     3.6450000000       0.0000000000       0.0000000000
     1.8225000000       3.1566625967942787       0.0000000000
     1.8225             1.052220865598093       5.8200550199
A B
1 2
Direct
     0.000000000     0.000000000     0.00000000
     0.745190000     0.745190000     0.745190000
     0.254810000     0.254810000     0.254810000
