System
1.0
3 0 0
0 3 0
0 0 15
A B
2 2
direct
0.5 0.5 0.35
0 0 0.5
0.5 0.5 0.65
0 0 0.3