System
1.0
-2.304253409841003 2.304253409841003 3.251411262609045
2.304253409841003 -2.304253409841003 3.251411262609045
2.304253409841003 2.304253409841003 -3.251411262609045
A B
3 1
direct
0.75 0.25 0.5 
0.25 0.75 0.5 
0.5 0.5 0.0 
0.01 0.01 0.01 
