cif (1).txt -- Reduced via c,b,-1/2a+1/2b
1.0
     3.3290000000       0.0000000000       0.0000000000
     0.0000000000       3.3600000000       0.0000000000
     1.5846858676       1.6801405100       3.2597428683
A B
1 2
Direct
     0.000000000     0.000000000     0.000000000  
     0.555910000     0.612940000     0.774120000  
     0.444090000     0.387060000     0.225880000  
