System
1.0
2.8309910233710243 0.0 0.0
-1.4154955116855121 2.451710144125012 0.0
0.0 0.0 4.972533905720395
A B
1 2
direct
0.0 0.0 0.0 
0.0 0.0 0.6160114783937232 
0.0 0.0 0.3839885216062769 
