t.cif -- Reduced via -1/2a-1/2b-1/2c,1/2a+1/2b-1/2c,1/2a-1/2b+1/2c
1.0
     4.5870000000       0.0000000000       0.0000000000
    -1.529              4.3246976467       0.0000000000
    -1.529            -2.16234882335       3.7454108563
A B
1 4
Direct
     0.000000000     0.000000000     0.000000000
     0.654560000     0.000000000     0.000000000
     0.345440000     0.345440000     0.345440000
     0.000000000     0.000000000     0.654560000
     0.000000000     0.654560000     0.000000000
