System
1.0
2.3821041281784643 1.3753084596415555 4.359197536258866
-2.3821041281784643 1.3753084596415555 4.359197536258866
0.0 -2.750616919283111 4.359197536258866
A B
2 6
direct
-3.700743415417188e-17 0.0 0.0
0.49999999999999983 0.5 0.5
0.6105351907259721 0.24409260857623272 0.8990622841115643
0.8990622841115643 0.6105351907259721 0.24409260857623272
0.24409260857623272 0.8990622841115643 0.6105351907259721
0.3894648092740279 0.7559073914237672 0.10093771588843568
0.10093771588843559 0.3894648092740279 0.7559073914237673
0.7559073914237672 0.1009377158884356 0.38946480927402805
