bulk@mp_1063005
   1.00000000000000
   5.0 0.0 0.0
   -2.5 4.330127018922193 0.0
   0.0000000000000000    0.0000000000000000    3.5
   A B
     2 1
Direct
 -0.0000000000000000 -0.0000000000000000  0.0000000000000000
  0.3333333333333333  0.6666666666666666  0.5000000000000000
  0.6666666666666666  0.3333333333333333  0.5000000000000000

  0.00000000E+00  0.00000000E+00  0.00000000E+00
  0.00000000E+00  0.00000000E+00  0.00000000E+00
  0.00000000E+00  0.00000000E+00  0.00000000E+00
