bulk@mp_573448
1.0
3.1815784925920427 0.0 0.0
-1.5907892462960214 2.755327798718909 0.0
0.0 0.0 10.0
A B
2 2
direct
0.000000 0.000000 0.000000 
0.000000 0.000000 0.500000 
0.333333333333 0.666666666667 0.250000 
0.666666666667 0.333333333333 0.750000 
