System
1.0
2.3988842275839355 1.3849964545503326 2.1520673116240596
-2.3988842275839355 1.3849964545503326 2.1520673116240596
0.0 -2.769992909100665 2.1520673116240596
A B
2 1
direct
0.5976223502990067 0.5976223502990066 0.5976223502990068 
0.40237764970099327 0.4023776497009934 0.40237764970099316 
-3.700743415417188e-17 0.0 0.0 
