bulk@mp_976150
   1.00000000000000
    -2.1546975674466693    2.1546975674466693    4.309395134893339
     2.1546975674466693   -2.1546975674466693    4.309395134893339
     2.1546975674466693    2.1546975674466693   -4.309395134893339
   A    B
     3     1
Direct
  0.750000  0.250000  0.5000000000000000
  0.250000  0.750000  0.5000000000000000
  0.5000000000000000  0.5000000000000000 -0.0000000000000000
  0.0000000000000000  0.0000000000000000  0.0000000000000000
