System
1.0
3.8613008205176653 0.0 0.0
0.0 3.8613008205176653 0.0
0.0 0.0 4.92446770841253
A B
2 2
direct
0.0 0.5 0.2359010769189028
0.5 0.0 0.7640989230810972
0.5 0.5 0.0
0.0 0.0 0.0
