System
1.0
4.139767973737905 0.0 0.0
0.0 4.139767973737905 0.0
0.0 0.0 4.139767973737905
A B
1 6
direct
0.0 0.0 0.0
0.2015105569586932 0.5 0.5
0.5 0.5 0.7984894430413068
0.5 0.5 0.2015105569586932
0.5 0.2015105569586932 0.5
0.5 0.7984894430413068 0.5
0.7984894430413068 0.5 0.5
