System
1.0
-3.21996499003796 3.21996499003796 2.1759821026179025
3.21996499003796 -3.21996499003796 2.1759821026179025
3.21996499003796 3.21996499003796 -2.1759821026179025
A B
1 5 
direct
0.0 0.0 0.0
0.2975613534243894 0.1012399811885847 0.39880133461297407
0.5 0.5 0.0
0.7024386465756107 0.8987600188114153 0.601198665387026
0.10123998118858468 0.7024386465756106 0.8036786277641953
0.8987600188114153 0.29756135342438933 0.19632137223580465
