Surf-mp-30106
   1.00000000000000
     6.3400677791799627    0.0000000000000000    0.0000000000000000
     0.0000000000000000    7.2718816267460982    0.0000000000000000
     0.0000000000000000    0.0000000000000000   10.0
   A   B
     1     5
Direct
  0.8247541209155737 -0.0000000000000000    0.5		      
  0.8229121159231768 -0.0000000000000000    0.27493858569572877  
  0.6523618313064324  0.7388959895931334    0.5		      
  0.6523618313064324  0.2611040104068665    0.5		      
  0.1689249846252122 -0.0000000000000000    0.5		      
  0.8229121159231768 -0.0000000000000000    0.7250586079578782   
