System
1.0
4.080617521340557 0.0 0.0
0.0 4.080617521340557 0.0
0.0 0.0 4.080617521340557
A B
3 3
direct
0.5 0.5 0.0
0.5 0.0 0.5
0.0 0.5 0.5
0.0 0.0 0.5
0.0 0.5 0.0
0.5 0.0 0.0
