bulk@mp_1062842                         
   1.00000000000000     
     0.0000000000000000    2.8095669205076019    0.000
     0.0000000000000000   -1.404783460253801     3.4759851101242543
     3.1959402405867290    0.0000000000000000    0.0000000000000000
   A   B 
     1     2
Direct
  0.0121816861442395  0.0243633722884244  0.5000000000000000
  0.5637339344546606  0.1274678689096531  0.0000000000000000
  0.2990843794010927  0.5981677588019250  0.5000000000000000
 
  0.00000000E+00  0.00000000E+00  0.00000000E+00
  0.00000000E+00  0.00000000E+00  0.00000000E+00
  0.00000000E+00  0.00000000E+00  0.00000000E+00
