System
1.0
0.0 3.692545158241231 3.692545158241231
3.692545158241231 0.0 3.692545158241231
3.692545158241231 3.692545158241231 0.0
A B
4 2
direct
0.125 0.125 0.125
0.625 0.125 0.125
0.125 0.625 0.125
0.125 0.125 0.625
0.5 0.5 0.5
0.75 0.75 0.75
