bulk@mp_570922
   1.00000000000000
     3.8852459554411136    0.0000000000000000    0.0000000000000000
     0.0000000000000000    3.8852459554411136    0.0000000000000000
    -0.0000000000000000    0.0000000000000000    5.2245561634294759
A B
     1     2
Direct
  0.5000000000000000  0.5000000000000000  0.0000000000000000
  0.0000000000000000  0.5000000000000000  0.2564562980109449
  0.5000000000000000 -0.0000000000000000  0.7435437019890550

  0.00000000E+00  0.00000000E+00  0.00000000E+00
  0.00000000E+00  0.00000000E+00  0.00000000E+00
  0.00000000E+00  0.00000000E+00  0.00000000E+00
