bulk@mp_12910                           
   1.00000000000000     
     3.9042639829047259    0.0000000000000000    0.0000000000000000
     0.0000000000000000    3.6386459629779671   -1.3908442254887061
     0.0000000000000000    0.1442432145301511    5.8323883377336241
   A    B
     2     2
Direct
  0.2500000000000000  0.1361761141167659  0.2723532282308029
  0.7500000000000000  0.8638238858832341  0.7276467717691970
  0.2500000000000000  0.3536884190057797  0.7073768380131212
  0.7500000000000000  0.6463115809942206  0.2926231619868789
 
  0.00000000E+00  0.00000000E+00  0.00000000E+00
  0.00000000E+00  0.00000000E+00  0.00000000E+00
  0.00000000E+00  0.00000000E+00  0.00000000E+00
  0.00000000E+00  0.00000000E+00  0.00000000E+00
