fake
   1.00000000000000
     3.5   -0.0000000000000000    0.0000000000000000
     -1.75 3.03 0
     0.0000000000000000   -0.0000000000000000    7.0
   A B
     1     2
Direct
  0.0000000000000000  0.000000000000000  0.000000000000000
  0.33  0.66  0.3333333333333333333333333333
  0.64  0.31  0.66666666666666666666666
