bulk@mp_1249                            
   1.00000000000000     
     4.6521034328033410    0.0000000000000000    0.0000000000000000
    -0.0000000000000000    4.6521034328033410    0.0000000000000000
     0.0000000000000000    0.0000000000000000    3.0724421452230510
   A   B 
     2     4
Direct
  0.5000000000000000  0.5000000000000000  0.5000000000000000
 -0.0000000000000000 -0.0000000000000000 -0.0000000000000000
  0.6971673941806964  0.6971673941806964 -0.0000000000000000
  0.1971673941806965  0.8028326058193036  0.5000000000000000
  0.3028326058193036  0.3028326058193036  0.0000000000000000
  0.8028326058193036  0.1971673941806965  0.5000000000000000
 
  0.00000000E+00  0.00000000E+00  0.00000000E+00
  0.00000000E+00  0.00000000E+00  0.00000000E+00
  0.00000000E+00  0.00000000E+00  0.00000000E+00
  0.00000000E+00  0.00000000E+00  0.00000000E+00
  0.00000000E+00  0.00000000E+00  0.00000000E+00
  0.00000000E+00  0.00000000E+00  0.00000000E+00
