bulk@mp_1066400                         
   1.00000000000000     
    -3.3868034758215648   -0.0000000162905880    1.1900246987878802
    -1.9024721268418463    3.0442072666543889    0.0000000065001054
    -3.4353336790696773   -0.0303292934618601   -4.3625163020692739
   A B
     1     3
Direct
  0.0027522539310350  0.0027522539413106  0.9917432382102798
  0.4261529185250096  0.4261529185251435  0.7215412444250084
  0.5027489713458333  0.5027489713441410  0.4917520859619533
  0.5793458561981183  0.5793458561894014  0.2619634314027644
 
  0.00000000E+00  0.00000000E+00  0.00000000E+00
  0.00000000E+00  0.00000000E+00  0.00000000E+00
  0.00000000E+00  0.00000000E+00  0.00000000E+00
  0.00000000E+00  0.00000000E+00  0.00000000E+00
