System
1.0
-2.5230047463353467 2.5230047463353467 6.350218496285951
2.5230047463353467 -2.5230047463353467 6.350218496285951
2.5230047463353467 2.5230047463353467 -6.350218496285951
A B
1 4
direct
0.0 0.0 0.0
0.3845976736126566 0.3845976736126566 0.0
0.6154023263873434 0.6154023263873434 0.0
0.75 0.25 0.5
0.25 0.75 0.5
