System
1.0
-2.0649106213888517 2.0649106213888517 3.9711173317395625
2.0649106213888517 -2.0649106213888517 3.9711173317395625
2.0649106213888517 2.0649106213888517 -3.9711173317395625
A B
1 4
direct
0.0 0.0 0.0
0.7580452437710167 0.7580452437710167 0.0
0.5 0.0 0.5
0.0 0.5 0.5
0.2419547562289833 0.2419547562289833 0.0
