t2.cif -- Reduced via b,-a,-1/3a+1/3b+1/3c
1.0
     4.1080000000       0.0000000000       0.0000000000
     2.0540000000       3.5576323587       0.0000000000
     2.0539902685       1.1858718344       9.3137614834
A B
2 3
Direct
     0.598810000     0.598810000     0.203569000  
     0.401190000     0.401190000     0.796430000  
     0.000000000     0.000000000     0.000000000  
     0.790680000     0.790680000     0.627959000  
     0.209320000     0.209320000     0.372040000  
