Surf-mp-1136
   1.00000000000000
     4.8774981158458592   -0.000000000000000    0.0000000000000000
    -2.4387490579229296    4.224037275233249    0.0000000000000000
     0.0000000000000000    0.0000000000000000   10
   A B
     1     3
Direct
  0.6666666666666666  0.3333333333333333  0.0
  0.3333333333333333  0.6666666666666666  -0.150716
  0.0000000000000000  0.0000000000000000  0.0
  0.3333333333333333  0.6666666666666666  0.150716

  0.00000000E+00  0.00000000E+00  0.00000000E+00
  0.00000000E+00  0.00000000E+00  0.00000000E+00
  0.00000000E+00  0.00000000E+00  0.00000000E+00
  0.00000000E+00  0.00000000E+00  0.00000000E+00
