bulk@mp_570991
   1.00000000000000
4 0 0
0 4.01 0
0 0 6
A B
     2     2
Direct
0 0 0
0.45 0.45 0.25
0 0 0.3
0.45 0.45 -0.05
