bulk@mp_2251                            
   1.00000000000000     
     1.8016619601872788   -3.1205697827182721    0.0000000000000000
     1.8016619601872788    3.1205697827182721    0.0000000000000000
     0.0000000000000000    0.0000000000000000    3.8396902302379976
   A B
    1 3
Direct
  0.0000000000000000  0.0000000000000000  0.0000000000000000
  0.0000000000000000  0.0000000000000000  0.5000000000000000
  0.6666666666666666  0.3333333333333333  0.0000000000000000
  0.333333333333333  0.66666666666666968  0.0000000000000000
 
  0.00000000E+00  0.00000000E+00  0.00000000E+00
  0.00000000E+00  0.00000000E+00  0.00000000E+00
  0.00000000E+00  0.00000000E+00  0.00000000E+00
  0.00000000E+00  0.00000000E+00  0.00000000E+00
