SnF4_mp-2706_symmetrized.cif -- Reduced via -a,-b,1/2a+1/2b+1/2c
1.0
     4.1580000000       0.0000000000       0.0000000000
     0.0000000000       4.1580000000       0.0000000000
    -2.0790000000      -2.0790000000      4.1840833240
A B
1 4
Direct
     0.000000000     0.000000000     0.000000000 
     0.228160000     0.228160000     0.456320000 
     0.771840000     0.771840000     0.543680000 
     0.000000000     0.500000000     0.000000000 
     0.500000000     0.000000000     0.000000000 