Ga2S3_mp-1224796_symmetrized.cif -- Reduced via a,c,-1/2a-1/2b-1/2c
1.0
     3.7130000000       0.0000000000       0.0000000000
     0.0000000000       5.4700000000       0.0000000000
    -1.8565000000      -2.7350000000       5.6249426338
A B
2 3
Direct
     0.839840000     0.832100000     0.679680000  
     0.160160000     0.152420000     0.320320000  
     0.666240000     0.421920000     0.332480000  
     0.333760000     0.089440000     0.667520000  
     0.000000000     0.754120000     0.000000000  