System
1.0
-3.1465201144103125 3.1465201144103125 3.1465201144103125
3.1465201144103125 -3.1465201144103125 3.1465201144103125
3.1465201144103125 3.1465201144103125 -3.1465201144103125
A B
1 6
direct
0.0 0.0 0.0
0.0 0.2933640083332474 0.2933640083332474
0.0 0.7066359916667526 0.7066359916667526
0.2933640083332474 0.0 0.2933640083332474
0.7066359916667526 0.0 0.7066359916667526
0.2933640083332474 0.2933640083332474 0.0
0.7066359916667526 0.7066359916667526 0.0
