bulk@mp_2657                            
   1.00000000000000     
     4.6321419520042530    0.0000000000000000    0.0000000000000000
     0.0000000000000000    4.6321419520042530    0.0000000000000000
     0.0000000000000000    0.0000000000000000    2.9717611709237692
   A   B 
     2     4
Direct
  0.5000000000000000  0.5000000000000000  0.5000000000000000
  0.0000000000000000  0.0000000000000000  0.0000000000000000
  0.6957644143613033  0.6957644143613033  0.0000000000000000
  0.1957644143613033  0.8042355856386967  0.5000000000000000
  0.3042355856386967  0.3042355856386967  0.0000000000000000
  0.8042355856386967  0.1957644143613033  0.5000000000000000
 
  0.00000000E+00  0.00000000E+00  0.00000000E+00
  0.00000000E+00  0.00000000E+00  0.00000000E+00
  0.00000000E+00  0.00000000E+00  0.00000000E+00
  0.00000000E+00  0.00000000E+00  0.00000000E+00
  0.00000000E+00  0.00000000E+00  0.00000000E+00
  0.00000000E+00  0.00000000E+00  0.00000000E+00
