System
1.0
-3.0523666288797404 3.0523666288797404 3.475211068804384
3.0523666288797404 -3.0523666288797404 3.475211068804384
3.0523666288797404 3.0523666288797404 -3.475211068804384
A B
2 6
direct
0.75 0.75 5.551115123125783e-17 
0.25000000000000006 0.25000000000000006 5.551115123125783e-17 
5.551115123125783e-17 0.5 0.5 
0.5 5.551115123125783e-17 0.5 
0.13742614937134073 0.6374261493713407 0.7748522987426814 
0.8625738506286593 0.3625738506286593 0.22514770125731862 
0.6374261493713407 0.8625738506286593 0.5 
0.3625738506286593 0.13742614937134073 0.5 
