System
1.0
 -1.58177   7.77489   2.65366
  1.58177  -7.77489   2.65366
  1.58177   7.77489  -2.65366
A B
3 5
direct
0.7708799546930412 0.4525835630494195 0.31829639164362167 
0.13428717140579782 0.4525835630494195 0.6817036083563783 
0.30824455491890385 0.3082445549189039 0.0 
0.947406783038363 0.723731734773029 0.22367504826533405 
0.5000566865076949 0.723731734773029 0.7763249517346659 
0.9792780125155394 0.0832224708358591 0.8960555416796803 
0.5063153010854571 0.006315301085457081 0.5 
0.18716692915617883 0.0832224708358591 0.10394445832031975 
