LaGa_mp-1002133_symmetrized.cif -- Reduced via -c,-a,1/2a+1/2b
1.0
     4.2490000000       0.0000000000       0.0000000000
     0.0000000000       4.5690000000       0.0000000000
     0.0000000000      -2.2845       5.8129848531
A B
2 2
Direct
     0.750000000     0.139560000     0.279120000  
     0.250000000     0.860440000     0.720880000  
     0.750000000     0.432560000     0.865120000  
     0.250000000     0.567440000     0.134880000  