KHg3_mp-1185042_symmetrized.cif -- Reduced via -a,-b,1/2a+1/2b+1/2c
1.0
     5.0840000000       0.0000000000       0.0000000000
     0.0000000000       5.0840000000       0.0000000000
    -2.542             -2.542              4.8941298653
A B
1 3
Direct
     0.000000000     0.000000000     0.000000000  
     0.250000000     0.750000000     0.500000000  
     0.750000000     0.250000000     0.500000000  
     0.500000000     0.500000000     0.000000000  
