bulk@mp_13061                           
   1.00000000000000     
     1.8342098851506512   -3.1769447128260029    0.0000000000000000
     1.8342098851506512    3.1769447128260029   -0.0000000000000000
    -0.0000000000000000   -0.0000000000000000    5.8591199023236342
   A    B 
     2     3
Direct
  0.3333333333330000000032  0.66666666666669999999968  0.2485969592611783
  0.66666666666669999999968  0.3333333333330000000032  0.7514030407388217
  0.3333333333330000000032  0.66666666666669999999968  0.6468230243083510
  0.66666666666669999999968  0.3333333333330000000032  0.35317697569164896
 -0.0000000000000000 -0.0000000000000000  0.0000000000000000
 
  0.00000000E+00  0.00000000E+00  0.00000000E+00
  0.00000000E+00  0.00000000E+00  0.00000000E+00
  0.00000000E+00  0.00000000E+00  0.00000000E+00
  0.00000000E+00  0.00000000E+00  0.00000000E+00
  0.00000000E+00  0.00000000E+00  0.00000000E+00
