bulk@mp_8781                            
   1.00000000000000     
     4.1575045396074914    0.0316126556199766    0.0000000000000000
    -0.0244365881708964    4.1575527274387092    0.0000000000000000
     0.0000000000000000    0.0000000000000000    5.8074458246400100
   A    B
     2     2
Direct
  0.2465188434106181  0.7465188434105758  0.7540459113981748
  0.7465188434106186  0.2465188434105753  0.2459540886018244
  0.7294811565893805  0.2294811565894238  0.7606407905478035
  0.2294811565893810  0.7294811565894233  0.2393592094521966
 
  0.00000000E+00  0.00000000E+00  0.00000000E+00
  0.00000000E+00  0.00000000E+00  0.00000000E+00
  0.00000000E+00  0.00000000E+00  0.00000000E+00
  0.00000000E+00  0.00000000E+00  0.00000000E+00
