t.cif -- Reduced via -a,-b,1/2a+1/2b+1/2c
1.0
     5.4640000000       0.0000000000       0.0000000000
     0.0000000000       5.4640000000       0.0000000000
    -2.732             -2.732              4.4215085694
A B
2 4
Direct
     0.000000000     0.000000000     0.000000000  
     0.250000000     0.750000000     0.500000000  
     0.352830000     0.875000000     0.250000000  
     0.897170000     0.375000000     0.250000000  
     0.125000000     0.102830000     0.750000000  
     0.625000000     0.647170000     0.750000000  