bulk@mp_974309
   1.00000000000000
     0.0000000000000000    3.7267652094427008    3.7267652094427008
     3.7267652094427013    0.0000000000000000    3.7267652094427008
     3.7267652094427013    3.7267652094427008    0.0000000000000000
   A B
     1     3
Direct
  0.75000  0.7500  0.75000
  0.00000  0.0000  0.00000
  0.50000  0.5000  0.50000
  0.25000  0.2500  0.25000

  0.00000000E+00  0.00000000E+00  0.00000000E+00
  0.00000000E+00  0.00000000E+00  0.00000000E+00
  0.00000000E+00  0.00000000E+00  0.00000000E+00
  0.00000000E+00  0.00000000E+00  0.00000000E+00
