&control
    calculation = 'vc-relax'
    restart_mode='from_scratch',
prefix = 'qeX'
    tstress = .true.
    tprnfor = .true.
    pseudo_dir = '/home/kevin/psuedo/gbrv_1.5/',
!    pseudo_dir = '/users/kfg/psuedo/gbrv_1.5/',
!    pseudo_dir = '/home/kevin/psp/'
    outdir = '/tmp/znse.in'
    disk_io = 'low'
    wf_collect = .true.
    verbosity = 'high'    
    nstep = 100
 /
&system
    ibrav = 0 
   nat  = 6
    ntyp= 2
    ecutwfc= 45,
    ecutrho= 250,
    q2sigma= 1
    ecfixed= 44.5,
    qcutz= 800
    occupations= "smearing",
    degauss= 0.005
    lda_plus_u= .false.
    force_symmorphic = true
    nosym = false
    noinv = false
/
&electrons
    diagonalization='david'
    mixing_mode = 'local-TF'
    mixing_beta = 0.3
    conv_thr = 1d-9
 /
&ions
  ion_dynamics='bfgs',
/
&cell
 cell_dynamics = 'bfgs'
 cell_dofree = 'all'
 cell_factor = 3.0
/
ATOMIC_SPECIES
Si   28.59  si.pbesol.UPF
S   32.06  s.pbesol.UPF
ATOMIC_POSITIONS crystal
A 0.0   0.0   0.0     
A 0.50  0.5   0.5
B 0.75  0.75  0.75
B 0.25  0.75  0.25
B 0.75  0.25  0.25
B 0.25  0.25  0.75    
CELL_PARAMETERS
   9.274058893  -0.000000000  -0.000000000
   0.000000000   9.274058893  -0.000000000
   0.000000000   0.000000000   9.274058893
K_POINTS automatic
4 4 4 0 0 0
