&control
    calculation = 'vc-relax'
    restart_mode='from_scratch',
    prefix = 'qe'
    tstress = .true.
    tprnfor = .true.
    pseudo_dir = '/home/kevin/psuedo/gbrv_1.5/',
!    pseudo_dir = '/users/kfg/psuedo/gbrv_1.5/',
!    pseudo_dir = '/home/kevin/psp/'
    outdir = './'
    disk_io = 'low'
    wf_collect = .true.
    verbosity = 'high'    
    nstep = 100
 /
&system
    ibrav = 0 
    nat=  4 
    ntyp= 2
    ecutwfc= 45,
    ecutrho= 250,
    q2sigma= 1
    ecfixed= 44.5,
    qcutz= 800
    occupations= "smearing",
    degauss= 0.005
    lda_plus_u= .false.
    force_symmorphic = true
    
    nosym = false
    noinv = false
/
&electrons
    diagonalization='david'
    mixing_mode = 'local-TF'
    mixing_beta = 0.3
    conv_thr = 1d-9
 /
&ions
  ion_dynamics='bfgs',
/
&cell
 cell_dynamics = 'bfgs'
 cell_dofree = 'xy'
 cell_factor = 3.0
/
ATOMIC_SPECIES
Si  22.98  si.pbesol.UPF
S  22.98  s.pbesol.UPF  
ATOMIC_POSITIONS crystal
A       0.000000000   0.000000000  -0.0868174
A       0.500000000   0.000000000   0.0868174
B        0.000000000   0.500000000  -0.272593
B        0.500000000   0.500000000   0.272593
CELL_PARAMETERS
   7.495040436   0.000000000   0.000000000
   0.000000000   6.278615983   0.000000000
   0.000000000   0.000000000  14.000000000
K_POINTS automatic
4 4 2 0 0 0
