&control
    calculation = 'SCF'
    restart_mode='from_scratch',
    prefix = 'PREFIX'
    tstress = .true.
    tprnfor = .true.
    pseudo_dir = 'PSEUDODIR',
!    pseudo_dir = '/home/kfg/psuedo/gbrv_1.5/',
!    pseudo_dir = '/home/kevin/psuedo/gbrv_1.5/',
!    pseudo_dir = '/users/kfg/psuedo/gbrv_1.5/',
!    pseudo_dir = '/home/kevin/psp/'
    outdir = 'TMPDIR'
    disk_io = 'low'
    wf_collect = .true.
    verbosity = 'high'    
    nstep = NSTEP
 /
&system
    JULIABRAV 
    nat=  JULIANAT 
    ntyp= JULIANTYPE
    ecutwfc= 45,
    ecutrho= 250,
    q2sigma= 1
    ecfixed= 44.5,
    qcutz= 800
    occupations= "smearing",
    degauss= 0.01
    lda_plus_u= .false.
    force_symmorphic = true
    JULIAOTHER
    nosym = false
    noinv = false
/
&electrons
    diagonalization='david'
    mixing_mode = 'MIXING'
    mixing_beta = MIX_BETA
    conv_thr = 1d-6
    startingpot = 'STARTATOMIC'
    mixing_ndim = MIX_NDIM
 /
&ions
  ion_dynamics='bfgs',
/
&cell
 cell_dynamics = 'bfgs'
 JULIADOFREE
 JULIACELLFACTOR
/
ATOMIC_SPECIES
JULIAPSP
ATOMIC_POSITIONS crystal
JULIACOORDS
CELL_PARAMETERS
JULIACELL
JULIAKTYPE
JULIAKPOINTS
