&inputpp
   outdir = 'TMPDIR'
   prefix = 'PREFIX'
   seedname = 'SEEDNAME'
   write_mmn = .true.
   write_amn = .true.
   write_unk = .false.
   JULIAOTHER
/
