&inputpp
   outdir = 'TMPDIR'
   prefix = 'PREFIX'
/        