&control
    calculation = 'vc-relax'
    restart_mode='from_scratch',
    prefix = 'qe'
    tstress = .true.
    tprnfor = .true.
    pseudo_dir = '/users/kfg/psuedo/gbrv_1.5/',
!    pseudo_dir = '/home/kevin/psp/'
    outdir = '/tmp/in.in'
    disk_io = 'low'
    wf_collect = .true.
    verbosity = 'high'    
    nstep = 100
 /
&system
    ibrav=  0, 
    nat=  1 
    ntyp= 1
    ecutwfc= 45,
    ecutrho= 250,
    q2sigma= 1
    ecfixed= 44.5,
    qcutz= 800
    occupations= "smearing",
    degauss= 0.005
    lda_plus_u= .false.
    force_symmorphic = true
    
    nosym = false
    noinv = false
/
&electrons
    diagonalization='david'
    mixing_mode = 'local-TF'
    mixing_beta = 0.3
    conv_thr = 1d-9
 /
&ions
  ion_dynamics='bfgs',
/
&cell
 cell_dynamics = 'bfgs'
 cell_dofree = 'all'
 cell_factor = 3.0
/
ATOMIC_SPECIES
Si  28.09  si.pbesol.UPF  
ATOMIC_POSITIONS crystal
Si   0.0000000000  0.0000000000  0.0000000000
CELL_PARAMETERS
  6.5066046828  0.0000000000  0.0000000000
  0.6558160525  6.4734696882  0.0000000000
 -3.5812106639 -3.2367351118  4.3628408744
K_POINTS automatic
 12 12 14 0 0 0
