bulk@mp_1057273                         
   1.00000000000000     
    -1.7452031751389574   -3.0227805688711999   -0.00000000
     1.7452031751389574   -3.0227805688711999   -0.00000000
     0.0000000000000001   -1.5113902844356    6.1816375432660315
   Pb
     2
Direct
  0.0908  0.0908  0.7275309141453384
  0.9008  0.9008  0.27246908585466156
 
  0.00000000E+00  0.00000000E+00  0.00000000E+00
  0.00000000E+00  0.00000000E+00  0.00000000E+00
