bulk@mp_142                             
   1.00000000000000     
     4.3548462582685943    0.0043531557975917    0.0000000000000000
    -2.1041186795538835    3.8127922533658776    0.0000000000000000
     0.0000000000000000    0.0000000000000000    4.4355015007380816
   Ga
     4
Direct
  0.1558901314274093  0.8441098685725902  0.9152563838345068
  0.3441098685725910  0.6558901314274098  0.4152563838345068
  0.8441098685725902  0.1558901314274093  0.0847436161654934
  0.6558901314274098  0.3441098685725910  0.5847436161654941
 
  0.00000000E+00  0.00000000E+00  0.00000000E+00
  0.00000000E+00  0.00000000E+00  0.00000000E+00
  0.00000000E+00  0.00000000E+00  0.00000000E+00
  0.00000000E+00  0.00000000E+00  0.00000000E+00
