bulk@mp_10                              
   1.0000000000000000     
     3.3653404919460050   -0.0000000007664197    1.9429799686786331
     1.1217801632594142    3.1728735454109032    1.9429799686786327
    -0.0000000021677627   -0.0000000015328397    3.8859609448666159
   As
     2
Direct
  0.2500000000000000  0.2500000000000000  0.2500000000000000
  0.7500000000000000  0.7500000000000000  0.7500000000000000

  0.00000000E+00  0.00000000E+00  0.00000000E+00
  0.00000000E+00  0.00000000E+00  0.00000000E+00
