t.cif -- Reduced via -a,-b,1/2a+1/2b+1/2c
1.0
     2.8700000000       0.0000000000       0.0000000000
     0.0000000000       2.8700000000       0.0000000000
    -1.435      -1.435       2.3356182604
A
1
Direct
     0.000000000     0.000000000     0.000000000  
