t.cif -- Reduced via a,c,-1/2a-1/2b
1.0
     3.7320000000       0.0000000000       0.0000000000
     0.0000000000       4.6080000000       0.0000000000
    -1.8660000000       0.0000000000       5.6024618809
As
4
Direct
     0.109070000     0.934500000     0.218140000  
     0.890930000     0.065500000     0.781860000  
     0.609070000     0.565500000     0.218140000  
     0.390930000     0.434500000     0.781860000  
     